
Log started (V12.8.0.0) Mon May  6 13:17:35 2019


Problem 'C:\Users\BrianFrench\Documents\GitHub\PowerGridResearch\PowerGridResearch\Code\PureRoads\tmp11pb2meo.pyomo.lp' read.
Read time = 0.02 sec. (1.74 ticks)

Problem name         : C:\Users\BrianFrench\Documents\GitHub\PowerGridResearch\PowerGridResearch\Code\PureRoads\tmp11pb2meo.pyomo.lp
Objective sense      : Minimize
Variables            :   21601  [Nneg: 1,  Binary: 21600]
Objective nonzeros   :     881
Linear constraints   :    1285  [Equal: 1285]
  Nonzeros           :   22501
  RHS nonzeros       :     903
Quadratic constraints:      12  [Less: 12]
  Linear terms       :   10800
  Quadratic terms    :   10800
  RHS nonzeros       :      12

Variables            : Min LB: 0.0000000        Max UB: 1.000000       
Objective nonzeros   : Min   : 3.060000         Max   : 16156.80       
Linear constraints   :
  Nonzeros           : Min   : 1.000000         Max   : 1.000000       
  RHS nonzeros       : Min   : 1.000000         Max   : 1.000000       
Quadratic constraints:
  Linear terms       : Min   : 0.1600000        Max   : 799.9200       
  Quadratic terms    : Min   : 0.1200000        Max   : 599.9400       
  RHS nonzeros       : Min   : 8.000000         Max   : 8.000000       
Tried aggregator 2 times.
MIQCP Presolve eliminated 901 rows and 1725 columns.
MIQCP Presolve modified 1735 coefficients.
Aggregator did 5 substitutions.
Reduced MIQCP has 20212 rows, 59493 columns, and 108281 nonzeros.
Reduced MIQCP has 19871 binaries, 0 generals, 0 SOSs, and 0 indicators.
Reduced MIQCP has 11 quadratic constraints.
Presolve time = 0.26 sec. (2481.46 ticks)
Probing time = 0.03 sec. (4.99 ticks)
Clique table members: 24.
MIP emphasis: balance optimality and feasibility.
MIP search method: dynamic search.
Parallel mode: deterministic, using up to 6 threads.
Root relaxation solution time = 0.05 sec. (41.56 ticks)

        Nodes                                         Cuts/
   Node  Left     Objective  IInf  Best Integer    Best Bound    ItCnt     Gap

      0     0      740.5200     0                    740.5200      557         
      0     0      740.5200    11                    Cone: 11     2043         
      0     0      740.5200    36                    Cone: 22     4021         
      0     0      740.5200    86                    Cone: 33     6202         
      0     0      740.5200    88                    Cone: 44     8576         
      0     0      740.5200   120                    Cone: 55    11013         
      0     0      740.5200   126                    Cone: 66    13561         
      0     0      740.5200   134                 Cone: 19877    42357         
      0     0      740.5200  9206                 Cone: 33818    59047         
      0     0      740.5200 11692                 Cone: 46839    75253         
      0     0      740.5200 11808                 Cone: 59681    92113         
      0     0      740.5200 11690                 Cone: 72390   108251         
      0     0      740.5200 11485                 Cone: 84835   123912         
      0     0      740.5200 11323                 Cone: 97053   138824         
      0     0      740.5200 11223                Cone: 109165   153439         
      0     0      740.5200 11125                Cone: 120826   167532         
      0     0      740.5200 11025                Cone: 131549   181356         
      0     0      740.5200 10927                Cone: 139792   192479         
      0     0      740.5200 10907                Cone: 144694   200329         
      0     0      740.5200 10869                Cone: 148553   206337         
      0     0      740.5200 10840                Cone: 151604   211350         
      0     0      740.5200 10797                Cone: 154159   215656         
      0     0      740.5200 10777                Cone: 156234   218725         
      0     0      740.5201 19071                    740.5201   218745         
Heuristic still looking.
Heuristic still looking.
      0     2      740.5201 19071                    740.5201   218805         
Elapsed time = 60.47 sec. (91111.64 ticks, tree = 0.01 MB, solutions = 0)
      1     3      740.5201 19070                    740.5201   218825         
      3     4      740.5201 19069                    740.5201   218845         
      6     5      740.5201 19069                    740.5201   218865         
      7     6      740.5201 19068                    740.5201   218885         
     12     9      740.5201 19068                    740.5201   218945         
     13    10      740.5201 19067                    740.5201   218965         
     18    15      740.5201 19067                    740.5201   219065         
     19    16      740.5201 19066                    740.5201   219085         
     24    19      740.5201 19066                    740.5201   219145         
     25    17      740.5201 19065                    740.5201   219105         
Elapsed time = 76.48 sec. (104013.84 ticks, tree = 0.01 MB, solutions = 0)
     31    28      740.5201 19064                    740.5201   219325         
     37    29      740.5201 19063                    740.5201   219345         
     43    39      740.5201 19062                    740.5201   219545         
     49    46      740.5201 19061                    740.5201   219685         
     54    51      740.5201 19060                    740.5201   219785         
     58    52      740.5201 19059                    740.5201   219805         
     60    40      740.5201 19061                    740.5201   219565         
     62    61      740.5201 19060                    740.5201   219985         
     65    62      740.5201 19059                    740.5201   220005         
     70    67      740.5201 19058                    740.5201   220105         
Elapsed time = 105.22 sec. (126502.41 ticks, tree = 0.01 MB, solutions = 0)
     75    69      740.5201 19057                    740.5201   220145         
     80    58      740.5201 19058                    740.5201   219925         
     81    70      740.5201 19056                    740.5201   220165         
     86    76      740.5201 19057                    740.5201   220285         
     87    79      740.5201 19055                    740.5201   220345         
     92    77      740.5201 19056                    740.5201   220305         
     93    80      740.5201 19054                    740.5201   220365         
     98    78      740.5201 19055                    740.5201   220325         
     99    81      740.5201 19053                    740.5201   220385         
    104    94      740.5201 19054                    740.5201   220645         
Elapsed time = 122.41 sec. (138473.72 ticks, tree = 0.01 MB, solutions = 0)
    106   100      740.5201 19052                    740.5201   220765         
    110    95      740.5201 19053                    740.5201   220665         
    111    98      740.5201 19051                    740.5201   220725         
    114    96      740.5201 19052                    740.5201   220685         
    116   105      740.5201 19049                    740.5201   220865         
    118   101      740.5201 19051                    740.5201   220785         
    121   120      740.5201 19050                    740.5201   221165         
    125   121      740.5201 19049                    740.5201   221185         
    128   123      740.5201 19047                    740.5201   221225         
    131   124      740.5201 19046                    740.5201   221245         
Elapsed time = 143.64 sec. (155873.64 ticks, tree = 0.02 MB, solutions = 0)
    134   125      740.5201 19045                    740.5201   221265         
    137   130      740.5201 19045                    740.5201   221365         
    140   131      740.5201 19044                    740.5201   221385         
    143   118      740.5201 19048                    740.5201   221125         
    147   144      740.5201 19047                    740.5201   221645         
    151   145      740.5201 19046                    740.5201   221665         
    153   146      740.5201 19045                    740.5201   221685         
    154   147      740.5201 19044                    740.5201   221705         
    155   141      740.5201 19041                    740.5201   221585         
    157   149      740.5201 19039                    740.5201   221745         
Elapsed time = 168.36 sec. (176120.00 ticks, tree = 0.02 MB, solutions = 0)
    159   153      740.5201 19042                    740.5201   221825         
    160   125      740.5201 19048                    740.5201   221265         
    164   145      740.5201 19041                    740.5201   221665         
    166   158      740.5201 19047                    740.5201   221925         
    169   159      740.5201 19048                    740.5201   221945         
    172   159      740.5201 19046                    740.5201   221945         
    176   163      740.5201 19039                    740.5201   222025         
    178   160      740.5201 19045                    740.5201   221965         
    181   161      740.5201 19046                    740.5201   221985         
    183   161      740.5201 19044                    740.5201   221985         
Elapsed time = 183.41 sec. (186767.73 ticks, tree = 0.02 MB, solutions = 0)
    187   165      740.5201 19037                    740.5201   222065         
    188   162      740.5201 19043                    740.5201   222005         
    193   179      740.5200 19042                    740.5201   222345         
    198   180      740.5201 19041                    740.5201   222365         
    202   190      740.5201 19042                    740.5201   222565         
    203   181      740.5201 19040                    740.5201   222385         
    206   191      740.5201 19041                    740.5201   222585         
    207   182      740.5201 19039                    740.5201   222405         
    210   199      740.5201 19029                    740.5201   222745         
    211   183      740.5201 19038                    740.5201   222425         
Elapsed time = 208.06 sec. (204848.59 ticks, tree = 0.03 MB, solutions = 0)
    214   204      740.5201 19037                    740.5201   222845         
    217   205      740.5201 19036                    740.5201   222865         
    220   188      740.5201 19031                    740.5201   222525         
    221   206      740.5201 19035                    740.5201   222885         
    224   215      740.5201 19030                    740.5201   223065         
    225   207      740.5201 19034                    740.5201   222905         
    228   216      740.5201 19029                    740.5201   223085         
    230   212      740.5201 19023                    740.5201   223005         
    233   209      740.5201 19032                    740.5201   222945         
    236   218      740.5201 19027                    740.5201   223125         
Elapsed time = 226.23 sec. (219167.41 ticks, tree = 0.03 MB, solutions = 0)
    239   214      740.5201 19021                    740.5201   223045         
    242   222      740.5201 19030                    740.5201   223205         
    246   220      740.5201 19025                    740.5201   223165         
    249   230      740.5201 19022                    740.5201   223365         
    251   225      740.5201 19035                    740.5201   223265         
    253   242      740.5201 19023                    740.5201   223605         
    254   226      740.5201 19034                    740.5201   223285         
    256   243      740.5201 19022                    740.5201   223625         
    257   227      740.5201 19033                    740.5201   223305         
    260   228      740.5201 19032                    740.5201   223325         
Elapsed time = 244.30 sec. (233155.89 ticks, tree = 0.04 MB, solutions = 0)
    263   256      740.5201 19031                    740.5201   223885         
    266   257      740.5201 19030                    740.5201   223905         
    268   252      740.5201 19025                    740.5201   223805         
    269   258      740.5201 19029                    740.5201   223925         
    271   253      740.5201 19024                    740.5201   223825         
    272   252      740.5201 19032                    740.5201   223805         
    274   253      740.5201 19031                    740.5201   223825         
    276   264      740.5201 19030                    740.5201   224045         
    278   257      740.5201 19020                    740.5201   223905         
    282   276      740.5201 19020                    740.5201   224285         
Elapsed time = 269.66 sec. (253474.70 ticks, tree = 0.04 MB, solutions = 0)
    288   278      740.5201 19018                    740.5201   224325         
    297   266      740.5201 19028                    740.5201   224085         
    309   287      740.5201 19026                    740.5201   224505         
    321   289      740.5201 19024                    740.5201   224545         
    331   291      740.5201 19022                    740.5201   224585         
    339   293      740.5201 19020                    740.5201   224625         
    346   312      740.5201 19015                    740.5201   225005         
    352   314      740.5201 19013                    740.5201   225045         
    361   325      740.5201 19018                    740.5201   225265         
    370   343      740.5201 19003                    740.5201   225625         
Elapsed time = 326.00 sec. (297176.26 ticks, tree = 0.06 MB, solutions = 0)
    378   345      740.5201 19001                    740.5201   225665         
    387   347      740.5201 18999                    740.5201   225705         
    396   369      740.5201 19007                    740.5201   226145         
    401   371      740.5201 19005                    740.5201   226185         
